85 62 71 61 57 
78 46 3 39 37 35 40 
2 7 94 65 24 20 
19 49 99 53 17 16 10 
1 87 52 74 22 
73 5 6 8 4 56 
90 83 18 23 84 63 33 
86 51 76 89 32 96 
93 95 64 91 81 43 36 41 
82 12 47 15 9 75 48 
98 70 69 50 34 31 30 
66 21 97 59 13 60 100 
80 92 38 44 42 55 88 68 
54 45 79 14 58 
11 29 28 
72 67 27 26 
77 25 

